c 
c MolecularSimulation 1.0.2
c Simulation written: Tue Aug 14 15:19:24 2012
c Test: Ogihara-Ray
c Input: ./data/testCNF/SWEEP_R10_K3_N16_M160_S001.cnf
c 
s UNSATISFIABLE
v 0
c algorithmType:  Ogihara-Ray
c algorithmTime:  0.013007
c solutionMemory: 0
c mixCount:       376
c extractCount:   480
c appendCount:    28
c splitCount:     14
c spliceCount:    0
c purifyCount:    174
c numVar:         16
c numClause:      160
c 
